db/data/282262535214826275892696813991186807511.z3.out
sat
-------------------
58.722395231
